1170810
5,35,98,101,1,82,45,34,52,29,46,59,84,51,2,81,94,107,16,25,83,3,63,20,44,43,85,61,32,95,6,30,103,56,74,92,4,67,79,90,109,24,23,15,64,22,104,58,54,102,100,53,17,80,48,21,13,93,96,108,33,78,106,60,42,88,7,18,50,76,73,19,62,87,105,99,71,47,97,91,89,11,49,10,66,77,9,37,26,41,38,72,31,39,14,28,36,12,65,55,68,40,8,70,69,27,86,75,57